NAME: random-31-8269
TYPE: TSP
COMMENT: size=31 seed=8269
DIMENSION: 64
EDGE_WEIGHT_TYPE: EUC_2D
NODE_COORD_SECTION
+0 83 692
-0 83 692
+1 135 98
-1 653 571
+2 88 705
-2 723 520
+3 811 903
-3 529 447
+4 760 340
-4 970 484
+5 63 795
-5 831 862
+6 228 998
-6 911 453
+7 471 809
-7 124 800
+8 738 199
-8 248 319
+9 894 743
-9 233 909
+10 949 540
-10 892 221
+11 76 558
-11 698 674
+12 201 657
-12 583 507
+13 450 305
-13 102 538
+14 475 690
-14 424 407
+15 658 517
-15 638 670
+16 243 109
-16 413 502
+17 793 954
-17 582 17
+18 538 765
-18 825 486
+19 287 326
-19 813 865
+20 220 994
-20 444 45
+21 260 820
-21 956 970
+22 511 653
-22 156 883
+23 251 390
-23 399 489
+24 275 827
-24 600 938
+25 795 50
-25 321 54
+26 516 933
-26 768 162
+27 993 889
-27 168 150
+28 910 920
-28 413 748
+29 511 258
-29 269 362
+30 396 143
-30 258 177
+31 621 149
-31 912 569
PRECEDENCE_SECTION
+0 -0
+1 -1
+2 -2
+3 -3
+4 -4
+5 -5
+6 -6
+7 -7
+8 -8
+9 -9
+10 -10
+11 -11
+12 -12
+13 -13
+14 -14
+15 -15
+16 -16
+17 -17
+18 -18
+19 -19
+20 -20
+21 -21
+22 -22
+23 -23
+24 -24
+25 -25
+26 -26
+27 -27
+28 -28
+29 -29
+30 -30
+31 -31
EOF
